# 99948
param n := 30;
param s := 1;
set E :=  (0,15) (0,16) (0,23) (1,24) (2,6) (2,11) (2,14) (3,10) (3,26) (4,18) (5,10) (6,21) (7,11) (8,9) (8,18) (12,19) (12,20) (12,21) (12,26) (13,15) (13,24) (14,28) (17,25) (18,19) (19,22) (20,24) (20,27) (23,27) (25,26) (26,29);
